3 40 1 10
6 3 12 11 2 12 8 20 5 18 16 9 20 14 4 18 2 3 14 8 20 12 20 9 18 2 15 4 12 17 1 14 19 4 12 4 10 1 1 14 
2.79 4.65 5.5 4.98 15.4 2.31 10.22 7.45 11.23 2.42 6.11 1.01 11.83 13.17 3.33 9.98 4.51 11.98 8.59 3 2.76 8.88 14.08 2.72 3.97 11.18 7.75 4.84 14.93 8.93 5.88 11.43 9.2 10.93 10.99 13.57 6.96 14.44 4.12 15.9 
8 8 8 8 8 8 8 8 8 8 8 8 8 8 8 8 8 8 8 8 8 8 8 8 8 8 8 8 8 8 8 8 8 8 8 8 8 8 8 8 
8.35 8.06 12.79 4.88 6.57 12.41 11.01 0.04 4.04 3.56 6.24 2.86 15.07 8.18 1.08 9.66 14.63 5.48 0.84 7.93 12.99 1.14 6.04 14.82 11.22 10.12 3.7 1.67 2.84 8.29 1.43 10.75 0.12 3.93 5.98 4.75 0.67 6.47 4.52 5.57 
1 1 1 1 1 1 1 1 1 1 1 1 1 1 1 1 1 1 1 1 1 1 1 1 1 1 1 1 1 1 1 1 1 1 1 1 1 1 1 1 
1 1 1 1 1 1 1 1 1 1 1 1 1 1 1 1 1 1 1 1 1 1 1 1 1 1 1 1 1 1 1 1 1 1 1 1 1 1 1 1 
1 1 1 1 1 1 1 1 1 1 1 1 1 1 1 1 1 1 1 1 1 1 1 1 1 1 1 1 1 1 1 1 1 1 1 1 1 1 1 1 
0.01 0.01 0.01 0.01 0.01 0.01 0.01 0.01 0.01 0.01 0.01 0.01 0.01 0.01 0.01 0.01 0.01 0.01 0.01 0.01 0.01 0.01 0.01 0.01 0.01 0.01 0.01 0.01 0.01 0.01 0.01 0.01 0.01 0.01 0.01 0.01 0.01 0.01 0.01 0.01 
0.02 0.02 0.02 0.02 0.02 0.02 0.02 0.02 0.02 0.02 0.02 0.02 0.02 0.02 0.02 0.02 0.02 0.02 0.02 0.02 0.02 0.02 0.02 0.02 0.02 0.02 0.02 0.02 0.02 0.02 0.02 0.02 0.02 0.02 0.02 0.02 0.02 0.02 0.02 0.02 
1 1 1 1 1 1 1 1 1 1 1 1 1 1 1 1 1 1 1 1 1 1 1 1 1 1 1 1 1 1 1 1 1 1 1 1 1 1 1 1 
